92	0

0	3	2	3	4
3	3	5	6	8
7	4	7	10	11	14
8	3	10	11	14
2	6	7	9	10	11	14	16
3	5	7	10	11	14	16
6	6	12	13	15	17	20	21
6	6	12	13	15	17	20	21
9	3	13	17	21
3	6	12	13	15	17	20	21
6	3	13	17	21
9	4	26	27	28	35
10	7	27	29	30	31	32	33	44
9	3	18	19	24
4	3	18	19	24
9	5	18	19	22	23	24
1	5	18	19	22	23	24
1	1	25
8	6	29	30	31	32	33	44
9	4	26	27	28	35
9	3	26	27	35
5	1	25
6	4	26	27	28	35
9	11	30	32	34	36	37	38	40	42	43	45	46
1	4	26	27	28	35
2	6	29	30	31	32	33	44
4	10	34	36	37	38	40	42	43	45	46	48
8	9	36	39	41	47	48	51	53	55	56
3	10	34	36	37	38	40	42	43	45	46	48
6	7	39	41	47	51	53	55	56
3	10	34	36	37	38	40	42	43	45	46	48
5	8	39	41	47	48	51	53	55	56
3	10	34	36	37	38	40	42	43	45	46	48
4	7	39	41	47	51	53	55	56
9	7	39	41	47	51	53	55	56
5	7	49	50	60	64	65	66	67
5	3	47	51	56
6	8	49	50	56	60	64	65	66	67
4	7	52	54	57	60	61	62	65
7	7	49	50	60	64	65	66	67
8	3	63	68	69
10	2	58	59
5	3	47	51	56
8	3	47	51	56
9	5	52	54	57	61	62
7	7	49	50	60	64	65	66	67
2	7	49	50	60	64	65	66	67
5	7	52	54	57	60	61	62	65
6	3	63	68	69
2	5	52	54	57	61	62
3	7	52	54	57	60	61	62	65
8	5	70	71	72	73	74
7	1	59
9	4	70	71	73	74
7	1	59
10	5	70	71	72	73	74
1	2	58	59
5	6	69	70	71	72	73	74
2	3	63	68	69
6	7	68	69	70	71	72	73	74
9	4	70	71	73	74
10	2	70	73
4	5	70	71	72	73	74
10	5	70	71	72	73	74
7	6	69	70	71	72	73	74
10	5	70	71	72	73	74
8	6	69	70	71	72	73	74
9	1	75
9	1	75
10	3	79	80	82
10	1	78
7	1	75
1	3	75	76	77
4	2	75	76
3	2	78	81
5	2	78	81
9	3	79	80	82
1	3	79	80	82
3	3	83	84	86
7	2	84	86
9	2	84	86
3	3	83	84	86
10	1	87
1	2	85	87
10	1	89
7	2	88	89
4	2	88	89
6	1	90
2	1	90
4	1	91
9	1	92
0	0
